c 0.010360956192016602 (encode time in sec)
p cnf 45 1048
1 2 3 4 0
1 2 -3 4 0
1 -2 3 4 0
1 -2 -3 4 0
-1 2 3 4 0
-1 2 -3 4 0
-1 -2 3 4 0
-1 -2 -3 4 0
5 6 7 8 0
5 6 -7 8 0
5 -6 7 8 0
5 -6 -7 8 0
-5 6 7 8 0
-5 6 -7 8 0
-5 -6 7 8 0
-5 -6 -7 8 0
9 10 11 12 0
9 10 -11 12 0
9 -10 11 12 0
9 -10 -11 12 0
-9 10 11 12 0
-9 10 -11 12 0
-9 -10 11 12 0
-9 -10 -11 12 0
13 14 15 1 2 3 5 6 7 17 0
13 14 15 1 2 3 5 6 -7 17 0
13 14 15 1 2 3 5 -6 7 16 0
13 14 15 1 2 3 5 -6 -7 0
13 14 15 1 2 3 -5 6 7 0
13 14 15 1 2 3 -5 6 -7 18 0
13 14 15 1 2 3 -5 -6 7 0
13 14 15 1 2 3 -5 -6 -7 0
13 14 15 1 2 -3 5 6 7 16 0
13 14 15 1 2 -3 5 6 -7 16 0
13 14 15 1 2 -3 5 -6 7 16 0
13 14 15 1 2 -3 5 -6 -7 0
13 14 15 1 2 -3 -5 6 7 0
13 14 15 1 2 -3 -5 6 -7 0
13 14 15 1 2 -3 -5 -6 7 0
13 14 15 1 2 -3 -5 -6 -7 0
13 14 15 1 -2 3 5 6 7 17 0
13 14 15 1 -2 3 5 6 -7 16 0
13 14 15 1 -2 3 5 -6 7 0
13 14 15 1 -2 3 5 -6 -7 0
13 14 15 1 -2 3 -5 6 7 0
13 14 15 1 -2 3 -5 6 -7 0
13 14 15 1 -2 3 -5 -6 7 0
13 14 15 1 -2 3 -5 -6 -7 0
13 14 15 1 -2 -3 5 6 7 20 0
13 14 15 1 -2 -3 5 6 -7 18 0
13 14 15 1 -2 -3 5 -6 7 0
13 14 15 1 -2 -3 5 -6 -7 0
13 14 15 1 -2 -3 -5 6 7 0
13 14 15 1 -2 -3 -5 6 -7 0
13 14 15 1 -2 -3 -5 -6 7 0
13 14 15 1 -2 -3 -5 -6 -7 0
13 14 15 -1 2 3 5 6 7 17 0
13 14 15 -1 2 3 5 6 -7 0
13 14 15 -1 2 3 5 -6 7 0
13 14 15 -1 2 3 5 -6 -7 0
13 14 15 -1 2 3 -5 6 7 0
13 14 15 -1 2 3 -5 6 -7 0
13 14 15 -1 2 3 -5 -6 7 0
13 14 15 -1 2 3 -5 -6 -7 0
13 14 15 -1 2 -3 5 6 7 21 0
13 14 15 -1 2 -3 5 6 -7 0
13 14 15 -1 2 -3 5 -6 7 0
13 14 15 -1 2 -3 5 -6 -7 0
13 14 15 -1 2 -3 -5 6 7 0
13 14 15 -1 2 -3 -5 6 -7 0
13 14 15 -1 2 -3 -5 -6 7 0
13 14 15 -1 2 -3 -5 -6 -7 0
13 14 15 -1 -2 3 5 6 7 0
13 14 15 -1 -2 3 5 6 -7 0
13 14 15 -1 -2 3 5 -6 7 0
13 14 15 -1 -2 3 5 -6 -7 0
13 14 15 -1 -2 3 -5 6 7 0
13 14 15 -1 -2 3 -5 6 -7 0
13 14 15 -1 -2 3 -5 -6 7 22 0
13 14 15 -1 -2 3 -5 -6 -7 0
13 14 15 -1 -2 -3 5 6 7 23 0
13 14 15 -1 -2 -3 5 6 -7 0
13 14 15 -1 -2 -3 5 -6 7 0
13 14 15 -1 -2 -3 5 -6 -7 0
13 14 15 -1 -2 -3 -5 6 7 0
13 14 15 -1 -2 -3 -5 6 -7 0
13 14 15 -1 -2 -3 -5 -6 7 0
13 14 15 -1 -2 -3 -5 -6 -7 0
13 14 -15 1 2 3 5 6 7 0
13 14 -15 1 2 3 5 6 -7 0
13 14 -15 1 2 3 5 -6 7 16 0
13 14 -15 1 2 3 5 -6 -7 17 0
13 14 -15 1 2 3 -5 6 7 17 0
13 14 -15 1 2 3 -5 6 -7 0
13 14 -15 1 2 3 -5 -6 7 0
13 14 -15 1 2 3 -5 -6 -7 0
13 14 -15 1 2 -3 5 6 7 16 0
13 14 -15 1 2 -3 5 6 -7 16 0
13 14 -15 1 2 -3 5 -6 7 16 0
13 14 -15 1 2 -3 5 -6 -7 23 0
13 14 -15 1 2 -3 -5 6 7 0
13 14 -15 1 2 -3 -5 6 -7 0
13 14 -15 1 2 -3 -5 -6 7 0
13 14 -15 1 2 -3 -5 -6 -7 0
13 14 -15 1 -2 3 5 6 7 0
13 14 -15 1 -2 3 5 6 -7 23 0
13 14 -15 1 -2 3 5 -6 7 16 0
13 14 -15 1 -2 3 5 -6 -7 0
13 14 -15 1 -2 3 -5 6 7 18 0
13 14 -15 1 -2 3 -5 6 -7 0
13 14 -15 1 -2 3 -5 -6 7 0
13 14 -15 1 -2 3 -5 -6 -7 0
13 14 -15 1 -2 -3 5 6 7 23 0
13 14 -15 1 -2 -3 5 6 -7 18 0
13 14 -15 1 -2 -3 5 -6 7 17 0
13 14 -15 1 -2 -3 5 -6 -7 0
13 14 -15 1 -2 -3 -5 6 7 0
13 14 -15 1 -2 -3 -5 6 -7 0
13 14 -15 1 -2 -3 -5 -6 7 0
13 14 -15 1 -2 -3 -5 -6 -7 0
13 14 -15 -1 2 3 5 6 7 0
13 14 -15 -1 2 3 5 6 -7 17 0
13 14 -15 -1 2 3 5 -6 7 18 0
13 14 -15 -1 2 3 5 -6 -7 0
13 14 -15 -1 2 3 -5 6 7 0
13 14 -15 -1 2 3 -5 6 -7 0
13 14 -15 -1 2 3 -5 -6 7 0
13 14 -15 -1 2 3 -5 -6 -7 0
13 14 -15 -1 2 -3 5 6 7 18 0
13 14 -15 -1 2 -3 5 6 -7 0
13 14 -15 -1 2 -3 5 -6 7 0
13 14 -15 -1 2 -3 5 -6 -7 0
13 14 -15 -1 2 -3 -5 6 7 0
13 14 -15 -1 2 -3 -5 6 -7 0
13 14 -15 -1 2 -3 -5 -6 7 0
13 14 -15 -1 2 -3 -5 -6 -7 0
13 14 -15 -1 -2 3 5 6 7 17 0
13 14 -15 -1 -2 3 5 6 -7 24 0
13 14 -15 -1 -2 3 5 -6 7 0
13 14 -15 -1 -2 3 5 -6 -7 0
13 14 -15 -1 -2 3 -5 6 7 0
13 14 -15 -1 -2 3 -5 6 -7 0
13 14 -15 -1 -2 3 -5 -6 7 22 0
13 14 -15 -1 -2 3 -5 -6 -7 0
13 14 -15 -1 -2 -3 5 6 7 23 0
13 14 -15 -1 -2 -3 5 6 -7 0
13 14 -15 -1 -2 -3 5 -6 7 0
13 14 -15 -1 -2 -3 5 -6 -7 0
13 14 -15 -1 -2 -3 -5 6 7 0
13 14 -15 -1 -2 -3 -5 6 -7 0
13 14 -15 -1 -2 -3 -5 -6 7 0
13 14 -15 -1 -2 -3 -5 -6 -7 0
13 -14 15 1 2 3 5 6 7 0
13 -14 15 1 2 3 5 6 -7 0
13 -14 15 1 2 3 5 -6 7 0
13 -14 15 1 2 3 5 -6 -7 0
13 -14 15 1 2 3 -5 6 7 0
13 -14 15 1 2 3 -5 6 -7 18 0
13 -14 15 1 2 3 -5 -6 7 23 0
13 -14 15 1 2 3 -5 -6 -7 0
13 -14 15 1 2 -3 5 6 7 0
13 -14 15 1 2 -3 5 6 -7 0
13 -14 15 1 2 -3 5 -6 7 0
13 -14 15 1 2 -3 5 -6 -7 20 0
13 -14 15 1 2 -3 -5 6 7 18 0
13 -14 15 1 2 -3 -5 6 -7 0
13 -14 15 1 2 -3 -5 -6 7 0
13 -14 15 1 2 -3 -5 -6 -7 0
13 -14 15 1 -2 3 5 6 7 0
13 -14 15 1 -2 3 5 6 -7 0
13 -14 15 1 -2 3 5 -6 7 0
13 -14 15 1 -2 3 5 -6 -7 18 0
13 -14 15 1 -2 3 -5 6 7 0
13 -14 15 1 -2 3 -5 6 -7 0
13 -14 15 1 -2 3 -5 -6 7 0
13 -14 15 1 -2 3 -5 -6 -7 0
13 -14 15 1 -2 -3 5 6 7 0
13 -14 15 1 -2 -3 5 6 -7 18 0
13 -14 15 1 -2 -3 5 -6 7 0
13 -14 15 1 -2 -3 5 -6 -7 0
13 -14 15 1 -2 -3 -5 6 7 16 0
13 -14 15 1 -2 -3 -5 6 -7 0
13 -14 15 1 -2 -3 -5 -6 7 0
13 -14 15 1 -2 -3 -5 -6 -7 0
13 -14 15 -1 2 3 5 6 7 0
13 -14 15 -1 2 3 5 6 -7 0
13 -14 15 -1 2 3 5 -6 7 18 0
13 -14 15 -1 2 3 5 -6 -7 21 0
13 -14 15 -1 2 3 -5 6 7 18 0
13 -14 15 -1 2 3 -5 6 -7 0
13 -14 15 -1 2 3 -5 -6 7 0
13 -14 15 -1 2 3 -5 -6 -7 0
13 -14 15 -1 2 -3 5 6 7 0
13 -14 15 -1 2 -3 5 6 -7 17 0
13 -14 15 -1 2 -3 5 -6 7 16 0
13 -14 15 -1 2 -3 5 -6 -7 0
13 -14 15 -1 2 -3 -5 6 7 0
13 -14 15 -1 2 -3 -5 6 -7 0
13 -14 15 -1 2 -3 -5 -6 7 0
13 -14 15 -1 2 -3 -5 -6 -7 0
13 -14 15 -1 -2 3 5 6 7 0
13 -14 15 -1 -2 3 5 6 -7 21 0
13 -14 15 -1 -2 3 5 -6 7 0
13 -14 15 -1 -2 3 5 -6 -7 0
13 -14 15 -1 -2 3 -5 6 7 0
13 -14 15 -1 -2 3 -5 6 -7 0
13 -14 15 -1 -2 3 -5 -6 7 22 0
13 -14 15 -1 -2 3 -5 -6 -7 0
13 -14 15 -1 -2 -3 5 6 7 0
13 -14 15 -1 -2 -3 5 6 -7 0
13 -14 15 -1 -2 -3 5 -6 7 18 0
13 -14 15 -1 -2 -3 5 -6 -7 0
13 -14 15 -1 -2 -3 -5 6 7 0
13 -14 15 -1 -2 -3 -5 6 -7 0
13 -14 15 -1 -2 -3 -5 -6 7 0
13 -14 15 -1 -2 -3 -5 -6 -7 0
13 -14 -15 1 2 3 5 6 7 0
13 -14 -15 1 2 3 5 6 -7 0
13 -14 -15 1 2 3 5 -6 7 0
13 -14 -15 1 2 3 5 -6 -7 0
13 -14 -15 1 2 3 -5 6 7 0
13 -14 -15 1 2 3 -5 6 -7 0
13 -14 -15 1 2 3 -5 -6 7 16 0
13 -14 -15 1 2 3 -5 -6 -7 0
13 -14 -15 1 2 -3 5 6 7 0
13 -14 -15 1 2 -3 5 6 -7 0
13 -14 -15 1 2 -3 5 -6 7 0
13 -14 -15 1 2 -3 5 -6 -7 0
13 -14 -15 1 2 -3 -5 6 7 18 0
13 -14 -15 1 2 -3 -5 6 -7 0
13 -14 -15 1 2 -3 -5 -6 7 0
13 -14 -15 1 2 -3 -5 -6 -7 0
13 -14 -15 1 -2 3 5 6 7 0
13 -14 -15 1 -2 3 5 6 -7 23 0
13 -14 -15 1 -2 3 5 -6 7 16 0
13 -14 -15 1 -2 3 5 -6 -7 18 0
13 -14 -15 1 -2 3 -5 6 7 18 0
13 -14 -15 1 -2 3 -5 6 -7 0
13 -14 -15 1 -2 3 -5 -6 7 0
13 -14 -15 1 -2 3 -5 -6 -7 0
13 -14 -15 1 -2 -3 5 6 7 0
13 -14 -15 1 -2 -3 5 6 -7 0
13 -14 -15 1 -2 -3 5 -6 7 0
13 -14 -15 1 -2 -3 5 -6 -7 16 0
13 -14 -15 1 -2 -3 -5 6 7 23 0
13 -14 -15 1 -2 -3 -5 6 -7 0
13 -14 -15 1 -2 -3 -5 -6 7 0
13 -14 -15 1 -2 -3 -5 -6 -7 0
13 -14 -15 -1 2 3 5 6 7 0
13 -14 -15 -1 2 3 5 6 -7 0
13 -14 -15 -1 2 3 5 -6 7 18 0
13 -14 -15 -1 2 3 5 -6 -7 18 0
13 -14 -15 -1 2 3 -5 6 7 0
13 -14 -15 -1 2 3 -5 6 -7 0
13 -14 -15 -1 2 3 -5 -6 7 0
13 -14 -15 -1 2 3 -5 -6 -7 0
13 -14 -15 -1 2 -3 5 6 7 0
13 -14 -15 -1 2 -3 5 6 -7 0
13 -14 -15 -1 2 -3 5 -6 7 16 0
13 -14 -15 -1 2 -3 5 -6 -7 16 0
13 -14 -15 -1 2 -3 -5 6 7 0
13 -14 -15 -1 2 -3 -5 6 -7 0
13 -14 -15 -1 2 -3 -5 -6 7 0
13 -14 -15 -1 2 -3 -5 -6 -7 0
13 -14 -15 -1 -2 3 5 6 7 0
13 -14 -15 -1 -2 3 5 6 -7 24 0
13 -14 -15 -1 -2 3 5 -6 7 17 0
13 -14 -15 -1 -2 3 5 -6 -7 25 0
13 -14 -15 -1 -2 3 -5 6 7 0
13 -14 -15 -1 -2 3 -5 6 -7 0
13 -14 -15 -1 -2 3 -5 -6 7 22 0
13 -14 -15 -1 -2 3 -5 -6 -7 0
13 -14 -15 -1 -2 -3 5 6 7 23 0
13 -14 -15 -1 -2 -3 5 6 -7 23 0
13 -14 -15 -1 -2 -3 5 -6 7 0
13 -14 -15 -1 -2 -3 5 -6 -7 0
13 -14 -15 -1 -2 -3 -5 6 7 0
13 -14 -15 -1 -2 -3 -5 6 -7 0
13 -14 -15 -1 -2 -3 -5 -6 7 0
13 -14 -15 -1 -2 -3 -5 -6 -7 0
-13 14 15 1 2 3 5 6 7 0
-13 14 15 1 2 3 5 6 -7 0
-13 14 15 1 2 3 5 -6 7 0
-13 14 15 1 2 3 5 -6 -7 0
-13 14 15 1 2 3 -5 6 7 0
-13 14 15 1 2 3 -5 6 -7 18 0
-13 14 15 1 2 3 -5 -6 7 23 0
-13 14 15 1 2 3 -5 -6 -7 0
-13 14 15 1 2 -3 5 6 7 0
-13 14 15 1 2 -3 5 6 -7 0
-13 14 15 1 2 -3 5 -6 7 0
-13 14 15 1 2 -3 5 -6 -7 0
-13 14 15 1 2 -3 -5 6 7 18 0
-13 14 15 1 2 -3 -5 6 -7 17 0
-13 14 15 1 2 -3 -5 -6 7 16 0
-13 14 15 1 2 -3 -5 -6 -7 0
-13 14 15 1 -2 3 5 6 7 0
-13 14 15 1 -2 3 5 6 -7 0
-13 14 15 1 -2 3 5 -6 7 0
-13 14 15 1 -2 3 5 -6 -7 18 0
-13 14 15 1 -2 3 -5 6 7 18 0
-13 14 15 1 -2 3 -5 6 -7 17 0
-13 14 15 1 -2 3 -5 -6 7 0
-13 14 15 1 -2 3 -5 -6 -7 0
-13 14 15 1 -2 -3 5 6 7 0
-13 14 15 1 -2 -3 5 6 -7 0
-13 14 15 1 -2 -3 5 -6 7 0
-13 14 15 1 -2 -3 5 -6 -7 0
-13 14 15 1 -2 -3 -5 6 7 23 0
-13 14 15 1 -2 -3 -5 6 -7 0
-13 14 15 1 -2 -3 -5 -6 7 0
-13 14 15 1 -2 -3 -5 -6 -7 0
-13 14 15 -1 2 3 5 6 7 0
-13 14 15 -1 2 3 5 6 -7 0
-13 14 15 -1 2 3 5 -6 7 0
-13 14 15 -1 2 3 5 -6 -7 0
-13 14 15 -1 2 3 -5 6 7 18 0
-13 14 15 -1 2 3 -5 6 -7 0
-13 14 15 -1 2 3 -5 -6 7 25 0
-13 14 15 -1 2 3 -5 -6 -7 0
-13 14 15 -1 2 -3 5 6 7 0
-13 14 15 -1 2 -3 5 6 -7 0
-13 14 15 -1 2 -3 5 -6 7 0
-13 14 15 -1 2 -3 5 -6 -7 16 0
-13 14 15 -1 2 -3 -5 6 7 0
-13 14 15 -1 2 -3 -5 6 -7 26 0
-13 14 15 -1 2 -3 -5 -6 7 0
-13 14 15 -1 2 -3 -5 -6 -7 0
-13 14 15 -1 -2 3 5 6 7 0
-13 14 15 -1 -2 3 5 6 -7 0
-13 14 15 -1 -2 3 5 -6 7 0
-13 14 15 -1 -2 3 5 -6 -7 25 0
-13 14 15 -1 -2 3 -5 6 7 0
-13 14 15 -1 -2 3 -5 6 -7 0
-13 14 15 -1 -2 3 -5 -6 7 22 0
-13 14 15 -1 -2 3 -5 -6 -7 0
-13 14 15 -1 -2 -3 5 6 7 23 0
-13 14 15 -1 -2 -3 5 6 -7 16 0
-13 14 15 -1 -2 -3 5 -6 7 0
-13 14 15 -1 -2 -3 5 -6 -7 16 0
-13 14 15 -1 -2 -3 -5 6 7 0
-13 14 15 -1 -2 -3 -5 6 -7 0
-13 14 15 -1 -2 -3 -5 -6 7 0
-13 14 15 -1 -2 -3 -5 -6 -7 0
-13 14 -15 1 2 3 5 6 7 0
-13 14 -15 1 2 3 5 6 -7 0
-13 14 -15 1 2 3 5 -6 7 0
-13 14 -15 1 2 3 5 -6 -7 0
-13 14 -15 1 2 3 -5 6 7 0
-13 14 -15 1 2 3 -5 6 -7 0
-13 14 -15 1 2 3 -5 -6 7 0
-13 14 -15 1 2 3 -5 -6 -7 16 0
-13 14 -15 1 2 -3 5 6 7 0
-13 14 -15 1 2 -3 5 6 -7 0
-13 14 -15 1 2 -3 5 -6 7 0
-13 14 -15 1 2 -3 5 -6 -7 0
-13 14 -15 1 2 -3 -5 6 7 0
-13 14 -15 1 2 -3 -5 6 -7 0
-13 14 -15 1 2 -3 -5 -6 7 16 0
-13 14 -15 1 2 -3 -5 -6 -7 16 0
-13 14 -15 1 -2 3 5 6 7 0
-13 14 -15 1 -2 3 5 6 -7 0
-13 14 -15 1 -2 3 5 -6 7 0
-13 14 -15 1 -2 3 5 -6 -7 0
-13 14 -15 1 -2 3 -5 6 7 0
-13 14 -15 1 -2 3 -5 6 -7 0
-13 14 -15 1 -2 3 -5 -6 7 23 0
-13 14 -15 1 -2 3 -5 -6 -7 0
-13 14 -15 1 -2 -3 5 6 7 0
-13 14 -15 1 -2 -3 5 6 -7 0
-13 14 -15 1 -2 -3 5 -6 7 0
-13 14 -15 1 -2 -3 5 -6 -7 16 0
-13 14 -15 1 -2 -3 -5 6 7 0
-13 14 -15 1 -2 -3 -5 6 -7 17 0
-13 14 -15 1 -2 -3 -5 -6 7 23 0
-13 14 -15 1 -2 -3 -5 -6 -7 0
-13 14 -15 -1 2 3 5 6 7 0
-13 14 -15 -1 2 3 5 6 -7 0
-13 14 -15 -1 2 3 5 -6 7 0
-13 14 -15 -1 2 3 5 -6 -7 0
-13 14 -15 -1 2 3 -5 6 7 18 0
-13 14 -15 -1 2 3 -5 6 -7 26 0
-13 14 -15 -1 2 3 -5 -6 7 25 0
-13 14 -15 -1 2 3 -5 -6 -7 0
-13 14 -15 -1 2 -3 5 6 7 0
-13 14 -15 -1 2 -3 5 6 -7 0
-13 14 -15 -1 2 -3 5 -6 7 0
-13 14 -15 -1 2 -3 5 -6 -7 0
-13 14 -15 -1 2 -3 -5 6 7 17 0
-13 14 -15 -1 2 -3 -5 6 -7 26 0
-13 14 -15 -1 2 -3 -5 -6 7 0
-13 14 -15 -1 2 -3 -5 -6 -7 0
-13 14 -15 -1 -2 3 5 6 7 0
-13 14 -15 -1 -2 3 5 6 -7 0
-13 14 -15 -1 -2 3 5 -6 7 0
-13 14 -15 -1 -2 3 5 -6 -7 26 0
-13 14 -15 -1 -2 3 -5 6 7 16 0
-13 14 -15 -1 -2 3 -5 6 -7 0
-13 14 -15 -1 -2 3 -5 -6 7 22 0
-13 14 -15 -1 -2 3 -5 -6 -7 0
-13 14 -15 -1 -2 -3 5 6 7 0
-13 14 -15 -1 -2 -3 5 6 -7 23 0
-13 14 -15 -1 -2 -3 5 -6 7 21 0
-13 14 -15 -1 -2 -3 5 -6 -7 0
-13 14 -15 -1 -2 -3 -5 6 7 18 0
-13 14 -15 -1 -2 -3 -5 6 -7 0
-13 14 -15 -1 -2 -3 -5 -6 7 0
-13 14 -15 -1 -2 -3 -5 -6 -7 0
-13 -14 15 1 2 3 5 6 7 0
-13 -14 15 1 2 3 5 6 -7 0
-13 -14 15 1 2 3 5 -6 7 0
-13 -14 15 1 2 3 5 -6 -7 0
-13 -14 15 1 2 3 -5 6 7 0
-13 -14 15 1 2 3 -5 6 -7 0
-13 -14 15 1 2 3 -5 -6 7 0
-13 -14 15 1 2 3 -5 -6 -7 23 0
-13 -14 15 1 2 -3 5 6 7 0
-13 -14 15 1 2 -3 5 6 -7 0
-13 -14 15 1 2 -3 5 -6 7 0
-13 -14 15 1 2 -3 5 -6 -7 0
-13 -14 15 1 2 -3 -5 6 7 0
-13 -14 15 1 2 -3 -5 6 -7 0
-13 -14 15 1 2 -3 -5 -6 7 0
-13 -14 15 1 2 -3 -5 -6 -7 16 0
-13 -14 15 1 -2 3 5 6 7 0
-13 -14 15 1 -2 3 5 6 -7 0
-13 -14 15 1 -2 3 5 -6 7 0
-13 -14 15 1 -2 3 5 -6 -7 0
-13 -14 15 1 -2 3 -5 6 7 0
-13 -14 15 1 -2 3 -5 6 -7 0
-13 -14 15 1 -2 3 -5 -6 7 20 0
-13 -14 15 1 -2 3 -5 -6 -7 0
-13 -14 15 1 -2 -3 5 6 7 0
-13 -14 15 1 -2 -3 5 6 -7 0
-13 -14 15 1 -2 -3 5 -6 7 0
-13 -14 15 1 -2 -3 5 -6 -7 0
-13 -14 15 1 -2 -3 -5 6 7 0
-13 -14 15 1 -2 -3 -5 6 -7 0
-13 -14 15 1 -2 -3 -5 -6 7 20 0
-13 -14 15 1 -2 -3 -5 -6 -7 26 0
-13 -14 15 -1 2 3 5 6 7 0
-13 -14 15 -1 2 3 5 6 -7 0
-13 -14 15 -1 2 3 5 -6 7 0
-13 -14 15 -1 2 3 5 -6 -7 0
-13 -14 15 -1 2 3 -5 6 7 0
-13 -14 15 -1 2 3 -5 6 -7 27 0
-13 -14 15 -1 2 3 -5 -6 7 27 0
-13 -14 15 -1 2 3 -5 -6 -7 0
-13 -14 15 -1 2 -3 5 6 7 0
-13 -14 15 -1 2 -3 5 6 -7 0
-13 -14 15 -1 2 -3 5 -6 7 0
-13 -14 15 -1 2 -3 5 -6 -7 0
-13 -14 15 -1 2 -3 -5 6 7 0
-13 -14 15 -1 2 -3 -5 6 -7 25 0
-13 -14 15 -1 2 -3 -5 -6 7 17 0
-13 -14 15 -1 2 -3 -5 -6 -7 0
-13 -14 15 -1 -2 3 5 6 7 0
-13 -14 15 -1 -2 3 5 6 -7 0
-13 -14 15 -1 -2 3 5 -6 7 0
-13 -14 15 -1 -2 3 5 -6 -7 25 0
-13 -14 15 -1 -2 3 -5 6 7 16 0
-13 -14 15 -1 -2 3 -5 6 -7 0
-13 -14 15 -1 -2 3 -5 -6 7 22 0
-13 -14 15 -1 -2 3 -5 -6 -7 0
-13 -14 15 -1 -2 -3 5 6 7 0
-13 -14 15 -1 -2 -3 5 6 -7 0
-13 -14 15 -1 -2 -3 5 -6 7 0
-13 -14 15 -1 -2 -3 5 -6 -7 16 0
-13 -14 15 -1 -2 -3 -5 6 7 18 0
-13 -14 15 -1 -2 -3 -5 6 -7 0
-13 -14 15 -1 -2 -3 -5 -6 7 0
-13 -14 15 -1 -2 -3 -5 -6 -7 0
-13 -14 -15 1 2 3 5 6 7 0
-13 -14 -15 1 2 3 5 6 -7 0
-13 -14 -15 1 2 3 5 -6 7 0
-13 -14 -15 1 2 3 5 -6 -7 0
-13 -14 -15 1 2 3 -5 6 7 0
-13 -14 -15 1 2 3 -5 6 -7 0
-13 -14 -15 1 2 3 -5 -6 7 0
-13 -14 -15 1 2 3 -5 -6 -7 23 0
-13 -14 -15 1 2 -3 5 6 7 0
-13 -14 -15 1 2 -3 5 6 -7 0
-13 -14 -15 1 2 -3 5 -6 7 0
-13 -14 -15 1 2 -3 5 -6 -7 0
-13 -14 -15 1 2 -3 -5 6 7 0
-13 -14 -15 1 2 -3 -5 6 -7 0
-13 -14 -15 1 2 -3 -5 -6 7 0
-13 -14 -15 1 2 -3 -5 -6 -7 0
-13 -14 -15 1 -2 3 5 6 7 0
-13 -14 -15 1 -2 3 5 6 -7 0
-13 -14 -15 1 -2 3 5 -6 7 0
-13 -14 -15 1 -2 3 5 -6 -7 0
-13 -14 -15 1 -2 3 -5 6 7 0
-13 -14 -15 1 -2 3 -5 6 -7 0
-13 -14 -15 1 -2 3 -5 -6 7 0
-13 -14 -15 1 -2 3 -5 -6 -7 17 0
-13 -14 -15 1 -2 -3 5 6 7 0
-13 -14 -15 1 -2 -3 5 6 -7 0
-13 -14 -15 1 -2 -3 5 -6 7 0
-13 -14 -15 1 -2 -3 5 -6 -7 0
-13 -14 -15 1 -2 -3 -5 6 7 0
-13 -14 -15 1 -2 -3 -5 6 -7 0
-13 -14 -15 1 -2 -3 -5 -6 7 0
-13 -14 -15 1 -2 -3 -5 -6 -7 27 0
-13 -14 -15 -1 2 3 5 6 7 0
-13 -14 -15 -1 2 3 5 6 -7 0
-13 -14 -15 -1 2 3 5 -6 7 0
-13 -14 -15 -1 2 3 5 -6 -7 0
-13 -14 -15 -1 2 3 -5 6 7 0
-13 -14 -15 -1 2 3 -5 6 -7 0
-13 -14 -15 -1 2 3 -5 -6 7 0
-13 -14 -15 -1 2 3 -5 -6 -7 17 0
-13 -14 -15 -1 2 -3 5 6 7 0
-13 -14 -15 -1 2 -3 5 6 -7 0
-13 -14 -15 -1 2 -3 5 -6 7 0
-13 -14 -15 -1 2 -3 5 -6 -7 0
-13 -14 -15 -1 2 -3 -5 6 7 0
-13 -14 -15 -1 2 -3 -5 6 -7 0
-13 -14 -15 -1 2 -3 -5 -6 7 0
-13 -14 -15 -1 2 -3 -5 -6 -7 17 0
-13 -14 -15 -1 -2 3 5 6 7 0
-13 -14 -15 -1 -2 3 5 6 -7 0
-13 -14 -15 -1 -2 3 5 -6 7 0
-13 -14 -15 -1 -2 3 5 -6 -7 0
-13 -14 -15 -1 -2 3 -5 6 7 0
-13 -14 -15 -1 -2 3 -5 6 -7 17 0
-13 -14 -15 -1 -2 3 -5 -6 7 22 0
-13 -14 -15 -1 -2 3 -5 -6 -7 17 0
-13 -14 -15 -1 -2 -3 5 6 7 0
-13 -14 -15 -1 -2 -3 5 6 -7 0
-13 -14 -15 -1 -2 -3 5 -6 7 0
-13 -14 -15 -1 -2 -3 5 -6 -7 0
-13 -14 -15 -1 -2 -3 -5 6 7 18 0
-13 -14 -15 -1 -2 -3 -5 6 -7 17 0
-13 -14 -15 -1 -2 -3 -5 -6 7 17 0
-13 -14 -15 -1 -2 -3 -5 -6 -7 17 0
28 29 30 9 10 11 13 14 15 32 0
28 29 30 9 10 11 13 14 -15 32 0
28 29 30 9 10 11 13 -14 15 0
28 29 30 9 10 11 13 -14 -15 0
28 29 30 9 10 11 -13 14 15 0
28 29 30 9 10 11 -13 14 -15 0
28 29 30 9 10 11 -13 -14 15 0
28 29 30 9 10 11 -13 -14 -15 0
28 29 30 9 10 -11 13 14 15 32 0
28 29 30 9 10 -11 13 14 -15 32 0
28 29 30 9 10 -11 13 -14 15 0
28 29 30 9 10 -11 13 -14 -15 0
28 29 30 9 10 -11 -13 14 15 0
28 29 30 9 10 -11 -13 14 -15 0
28 29 30 9 10 -11 -13 -14 15 0
28 29 30 9 10 -11 -13 -14 -15 0
28 29 30 9 -10 11 13 14 15 32 0
28 29 30 9 -10 11 13 14 -15 34 0
28 29 30 9 -10 11 13 -14 15 0
28 29 30 9 -10 11 13 -14 -15 0
28 29 30 9 -10 11 -13 14 15 0
28 29 30 9 -10 11 -13 14 -15 0
28 29 30 9 -10 11 -13 -14 15 0
28 29 30 9 -10 11 -13 -14 -15 0
28 29 30 9 -10 -11 13 14 15 32 0
28 29 30 9 -10 -11 13 14 -15 0
28 29 30 9 -10 -11 13 -14 15 0
28 29 30 9 -10 -11 13 -14 -15 0
28 29 30 9 -10 -11 -13 14 15 0
28 29 30 9 -10 -11 -13 14 -15 0
28 29 30 9 -10 -11 -13 -14 15 0
28 29 30 9 -10 -11 -13 -14 -15 35 0
28 29 30 -9 10 11 13 14 15 32 0
28 29 30 -9 10 11 13 14 -15 34 0
28 29 30 -9 10 11 13 -14 15 0
28 29 30 -9 10 11 13 -14 -15 0
28 29 30 -9 10 11 -13 14 15 0
28 29 30 -9 10 11 -13 14 -15 0
28 29 30 -9 10 11 -13 -14 15 0
28 29 30 -9 10 11 -13 -14 -15 0
28 29 30 -9 10 -11 13 14 15 33 0
28 29 30 -9 10 -11 13 14 -15 35 0
28 29 30 -9 10 -11 13 -14 15 0
28 29 30 -9 10 -11 13 -14 -15 0
28 29 30 -9 10 -11 -13 14 15 0
28 29 30 -9 10 -11 -13 14 -15 0
28 29 30 -9 10 -11 -13 -14 15 0
28 29 30 -9 10 -11 -13 -14 -15 0
28 29 30 -9 -10 11 13 14 15 32 0
28 29 30 -9 -10 11 13 14 -15 0
28 29 30 -9 -10 11 13 -14 15 0
28 29 30 -9 -10 11 13 -14 -15 0
28 29 30 -9 -10 11 -13 14 15 0
28 29 30 -9 -10 11 -13 14 -15 0
28 29 30 -9 -10 11 -13 -14 15 0
28 29 30 -9 -10 11 -13 -14 -15 0
28 29 30 -9 -10 -11 13 14 15 36 0
28 29 30 -9 -10 -11 13 14 -15 0
28 29 30 -9 -10 -11 13 -14 15 0
28 29 30 -9 -10 -11 13 -14 -15 0
28 29 30 -9 -10 -11 -13 14 15 35 0
28 29 30 -9 -10 -11 -13 14 -15 0
28 29 30 -9 -10 -11 -13 -14 15 0
28 29 30 -9 -10 -11 -13 -14 -15 0
28 29 -30 9 10 11 13 14 15 0
28 29 -30 9 10 11 13 14 -15 0
28 29 -30 9 10 11 13 -14 15 32 0
28 29 -30 9 10 11 13 -14 -15 0
28 29 -30 9 10 11 -13 14 15 0
28 29 -30 9 10 11 -13 14 -15 0
28 29 -30 9 10 11 -13 -14 15 0
28 29 -30 9 10 11 -13 -14 -15 0
28 29 -30 9 10 -11 13 14 15 0
28 29 -30 9 10 -11 13 14 -15 0
28 29 -30 9 10 -11 13 -14 15 32 0
28 29 -30 9 10 -11 13 -14 -15 0
28 29 -30 9 10 -11 -13 14 15 0
28 29 -30 9 10 -11 -13 14 -15 0
28 29 -30 9 10 -11 -13 -14 15 0
28 29 -30 9 10 -11 -13 -14 -15 0
28 29 -30 9 -10 11 13 14 15 0
28 29 -30 9 -10 11 13 14 -15 37 0
28 29 -30 9 -10 11 13 -14 15 38 0
28 29 -30 9 -10 11 13 -14 -15 0
28 29 -30 9 -10 11 -13 14 15 0
28 29 -30 9 -10 11 -13 14 -15 0
28 29 -30 9 -10 11 -13 -14 15 0
28 29 -30 9 -10 11 -13 -14 -15 0
28 29 -30 9 -10 -11 13 14 15 0
28 29 -30 9 -10 -11 13 14 -15 32 0
28 29 -30 9 -10 -11 13 -14 15 0
28 29 -30 9 -10 -11 13 -14 -15 0
28 29 -30 9 -10 -11 -13 14 15 0
28 29 -30 9 -10 -11 -13 14 -15 0
28 29 -30 9 -10 -11 -13 -14 15 0
28 29 -30 9 -10 -11 -13 -14 -15 35 0
28 29 -30 -9 10 11 13 14 15 0
28 29 -30 -9 10 11 13 14 -15 37 0
28 29 -30 -9 10 11 13 -14 15 0
28 29 -30 -9 10 11 13 -14 -15 0
28 29 -30 -9 10 11 -13 14 15 0
28 29 -30 -9 10 11 -13 14 -15 0
28 29 -30 -9 10 11 -13 -14 15 0
28 29 -30 -9 10 11 -13 -14 -15 0
28 29 -30 -9 10 -11 13 14 15 39 0
28 29 -30 -9 10 -11 13 14 -15 35 0
28 29 -30 -9 10 -11 13 -14 15 0
28 29 -30 -9 10 -11 13 -14 -15 0
28 29 -30 -9 10 -11 -13 14 15 0
28 29 -30 -9 10 -11 -13 14 -15 0
28 29 -30 -9 10 -11 -13 -14 15 0
28 29 -30 -9 10 -11 -13 -14 -15 0
28 29 -30 -9 -10 11 13 14 15 0
28 29 -30 -9 -10 11 13 14 -15 39 0
28 29 -30 -9 -10 11 13 -14 15 0
28 29 -30 -9 -10 11 13 -14 -15 0
28 29 -30 -9 -10 11 -13 14 15 0
28 29 -30 -9 -10 11 -13 14 -15 0
28 29 -30 -9 -10 11 -13 -14 15 0
28 29 -30 -9 -10 11 -13 -14 -15 0
28 29 -30 -9 -10 -11 13 14 15 40 0
28 29 -30 -9 -10 -11 13 14 -15 41 0
28 29 -30 -9 -10 -11 13 -14 15 0
28 29 -30 -9 -10 -11 13 -14 -15 0
28 29 -30 -9 -10 -11 -13 14 15 35 0
28 29 -30 -9 -10 -11 -13 14 -15 0
28 29 -30 -9 -10 -11 -13 -14 15 0
28 29 -30 -9 -10 -11 -13 -14 -15 0
28 -29 30 9 10 11 13 14 15 0
28 -29 30 9 10 11 13 14 -15 0
28 -29 30 9 10 11 13 -14 15 0
28 -29 30 9 10 11 13 -14 -15 32 0
28 -29 30 9 10 11 -13 14 15 39 0
28 -29 30 9 10 11 -13 14 -15 0
28 -29 30 9 10 11 -13 -14 15 0
28 -29 30 9 10 11 -13 -14 -15 0
28 -29 30 9 10 -11 13 14 15 0
28 -29 30 9 10 -11 13 14 -15 0
28 -29 30 9 10 -11 13 -14 15 0
28 -29 30 9 10 -11 13 -14 -15 32 0
28 -29 30 9 10 -11 -13 14 15 0
28 -29 30 9 10 -11 -13 14 -15 0
28 -29 30 9 10 -11 -13 -14 15 0
28 -29 30 9 10 -11 -13 -14 -15 0
28 -29 30 9 -10 11 13 14 15 0
28 -29 30 9 -10 11 13 14 -15 0
28 -29 30 9 -10 11 13 -14 15 38 0
28 -29 30 9 -10 11 13 -14 -15 0
28 -29 30 9 -10 11 -13 14 15 0
28 -29 30 9 -10 11 -13 14 -15 0
28 -29 30 9 -10 11 -13 -14 15 0
28 -29 30 9 -10 11 -13 -14 -15 0
28 -29 30 9 -10 -11 13 14 15 0
28 -29 30 9 -10 -11 13 14 -15 0
28 -29 30 9 -10 -11 13 -14 15 32 0
28 -29 30 9 -10 -11 13 -14 -15 39 0
28 -29 30 9 -10 -11 -13 14 15 0
28 -29 30 9 -10 -11 -13 14 -15 0
28 -29 30 9 -10 -11 -13 -14 15 0
28 -29 30 9 -10 -11 -13 -14 -15 35 0
28 -29 30 -9 10 11 13 14 15 0
28 -29 30 -9 10 11 13 14 -15 0
28 -29 30 -9 10 11 13 -14 15 33 0
28 -29 30 -9 10 11 13 -14 -15 0
28 -29 30 -9 10 11 -13 14 15 0
28 -29 30 -9 10 11 -13 14 -15 0
28 -29 30 -9 10 11 -13 -14 15 0
28 -29 30 -9 10 11 -13 -14 -15 0
28 -29 30 -9 10 -11 13 14 15 0
28 -29 30 -9 10 -11 13 14 -15 35 0
28 -29 30 -9 10 -11 13 -14 15 37 0
28 -29 30 -9 10 -11 13 -14 -15 0
28 -29 30 -9 10 -11 -13 14 15 0
28 -29 30 -9 10 -11 -13 14 -15 0
28 -29 30 -9 10 -11 -13 -14 15 0
28 -29 30 -9 10 -11 -13 -14 -15 0
28 -29 30 -9 -10 11 13 14 15 0
28 -29 30 -9 -10 11 13 14 -15 33 0
28 -29 30 -9 -10 11 13 -14 15 0
28 -29 30 -9 -10 11 13 -14 -15 0
28 -29 30 -9 -10 11 -13 14 15 0
28 -29 30 -9 -10 11 -13 14 -15 0
28 -29 30 -9 -10 11 -13 -14 15 0
28 -29 30 -9 -10 11 -13 -14 -15 0
28 -29 30 -9 -10 -11 13 14 15 36 0
28 -29 30 -9 -10 -11 13 14 -15 38 0
28 -29 30 -9 -10 -11 13 -14 15 0
28 -29 30 -9 -10 -11 13 -14 -15 0
28 -29 30 -9 -10 -11 -13 14 15 35 0
28 -29 30 -9 -10 -11 -13 14 -15 0
28 -29 30 -9 -10 -11 -13 -14 15 0
28 -29 30 -9 -10 -11 -13 -14 -15 0
28 -29 -30 9 10 11 13 14 15 0
28 -29 -30 9 10 11 13 14 -15 0
28 -29 -30 9 10 11 13 -14 15 0
28 -29 -30 9 10 11 13 -14 -15 0
28 -29 -30 9 10 11 -13 14 15 33 0
28 -29 -30 9 10 11 -13 14 -15 0
28 -29 -30 9 10 11 -13 -14 15 0
28 -29 -30 9 10 11 -13 -14 -15 0
28 -29 -30 9 10 -11 13 14 15 0
28 -29 -30 9 10 -11 13 14 -15 0
28 -29 -30 9 10 -11 13 -14 15 0
28 -29 -30 9 10 -11 13 -14 -15 0
28 -29 -30 9 10 -11 -13 14 15 32 0
28 -29 -30 9 10 -11 -13 14 -15 0
28 -29 -30 9 10 -11 -13 -14 15 0
28 -29 -30 9 10 -11 -13 -14 -15 0
28 -29 -30 9 -10 11 13 14 15 0
28 -29 -30 9 -10 11 13 14 -15 0
28 -29 -30 9 -10 11 13 -14 15 0
28 -29 -30 9 -10 11 13 -14 -15 32 0
28 -29 -30 9 -10 11 -13 14 15 38 0
28 -29 -30 9 -10 11 -13 14 -15 0
28 -29 -30 9 -10 11 -13 -14 15 0
28 -29 -30 9 -10 11 -13 -14 -15 0
28 -29 -30 9 -10 -11 13 14 15 0
28 -29 -30 9 -10 -11 13 14 -15 0
28 -29 -30 9 -10 -11 13 -14 15 0
28 -29 -30 9 -10 -11 13 -14 -15 33 0
28 -29 -30 9 -10 -11 -13 14 15 36 0
28 -29 -30 9 -10 -11 -13 14 -15 0
28 -29 -30 9 -10 -11 -13 -14 15 0
28 -29 -30 9 -10 -11 -13 -14 -15 35 0
28 -29 -30 -9 10 11 13 14 15 0
28 -29 -30 -9 10 11 13 14 -15 0
28 -29 -30 -9 10 11 13 -14 15 39 0
28 -29 -30 -9 10 11 13 -14 -15 32 0
28 -29 -30 -9 10 11 -13 14 15 0
28 -29 -30 -9 10 11 -13 14 -15 0
28 -29 -30 -9 10 11 -13 -14 15 0
28 -29 -30 -9 10 11 -13 -14 -15 0
28 -29 -30 -9 10 -11 13 14 15 0
28 -29 -30 -9 10 -11 13 14 -15 35 0
28 -29 -30 -9 10 -11 13 -14 15 34 0
28 -29 -30 -9 10 -11 13 -14 -15 40 0
28 -29 -30 -9 10 -11 -13 14 15 0
28 -29 -30 -9 10 -11 -13 14 -15 0
28 -29 -30 -9 10 -11 -13 -14 15 0
28 -29 -30 -9 10 -11 -13 -14 -15 0
28 -29 -30 -9 -10 11 13 14 15 0
28 -29 -30 -9 -10 11 13 14 -15 0
28 -29 -30 -9 -10 11 13 -14 15 32 0
28 -29 -30 -9 -10 11 13 -14 -15 0
28 -29 -30 -9 -10 11 -13 14 15 0
28 -29 -30 -9 -10 11 -13 14 -15 0
28 -29 -30 -9 -10 11 -13 -14 15 0
28 -29 -30 -9 -10 11 -13 -14 -15 0
28 -29 -30 -9 -10 -11 13 14 15 0
28 -29 -30 -9 -10 -11 13 14 -15 0
28 -29 -30 -9 -10 -11 13 -14 15 39 0
28 -29 -30 -9 -10 -11 13 -14 -15 0
28 -29 -30 -9 -10 -11 -13 14 15 35 0
28 -29 -30 -9 -10 -11 -13 14 -15 0
28 -29 -30 -9 -10 -11 -13 -14 15 0
28 -29 -30 -9 -10 -11 -13 -14 -15 0
-28 29 30 9 10 11 13 14 15 0
-28 29 30 9 10 11 13 14 -15 0
-28 29 30 9 10 11 13 -14 15 0
-28 29 30 9 10 11 13 -14 -15 0
-28 29 30 9 10 11 -13 14 15 0
-28 29 30 9 10 11 -13 14 -15 42 0
-28 29 30 9 10 11 -13 -14 15 39 0
-28 29 30 9 10 11 -13 -14 -15 0
-28 29 30 9 10 -11 13 14 15 0
-28 29 30 9 10 -11 13 14 -15 0
-28 29 30 9 10 -11 13 -14 15 0
-28 29 30 9 10 -11 13 -14 -15 0
-28 29 30 9 10 -11 -13 14 15 0
-28 29 30 9 10 -11 -13 14 -15 38 0
-28 29 30 9 10 -11 -13 -14 15 0
-28 29 30 9 10 -11 -13 -14 -15 0
-28 29 30 9 -10 11 13 14 15 0
-28 29 30 9 -10 11 13 14 -15 0
-28 29 30 9 -10 11 13 -14 15 0
-28 29 30 9 -10 11 13 -14 -15 0
-28 29 30 9 -10 11 -13 14 15 38 0
-28 29 30 9 -10 11 -13 14 -15 38 0
-28 29 30 9 -10 11 -13 -14 15 0
-28 29 30 9 -10 11 -13 -14 -15 0
-28 29 30 9 -10 -11 13 14 15 0
-28 29 30 9 -10 -11 13 14 -15 0
-28 29 30 9 -10 -11 13 -14 15 0
-28 29 30 9 -10 -11 13 -14 -15 0
-28 29 30 9 -10 -11 -13 14 15 36 0
-28 29 30 9 -10 -11 -13 14 -15 0
-28 29 30 9 -10 -11 -13 -14 15 0
-28 29 30 9 -10 -11 -13 -14 -15 35 0
-28 29 30 -9 10 11 13 14 15 0
-28 29 30 -9 10 11 13 14 -15 0
-28 29 30 -9 10 11 13 -14 15 0
-28 29 30 -9 10 11 13 -14 -15 0
-28 29 30 -9 10 11 -13 14 15 32 0
-28 29 30 -9 10 11 -13 14 -15 0
-28 29 30 -9 10 11 -13 -14 15 0
-28 29 30 -9 10 11 -13 -14 -15 0
-28 29 30 -9 10 -11 13 14 15 0
-28 29 30 -9 10 -11 13 14 -15 35 0
-28 29 30 -9 10 -11 13 -14 15 0
-28 29 30 -9 10 -11 13 -14 -15 43 0
-28 29 30 -9 10 -11 -13 14 15 39 0
-28 29 30 -9 10 -11 -13 14 -15 0
-28 29 30 -9 10 -11 -13 -14 15 0
-28 29 30 -9 10 -11 -13 -14 -15 0
-28 29 30 -9 -10 11 13 14 15 0
-28 29 30 -9 -10 11 13 14 -15 0
-28 29 30 -9 -10 11 13 -14 15 0
-28 29 30 -9 -10 11 13 -14 -15 33 0
-28 29 30 -9 -10 11 -13 14 15 34 0
-28 29 30 -9 -10 11 -13 14 -15 0
-28 29 30 -9 -10 11 -13 -14 15 0
-28 29 30 -9 -10 11 -13 -14 -15 0
-28 29 30 -9 -10 -11 13 14 15 0
-28 29 30 -9 -10 -11 13 14 -15 35 0
-28 29 30 -9 -10 -11 13 -14 15 33 0
-28 29 30 -9 -10 -11 13 -14 -15 0
-28 29 30 -9 -10 -11 -13 14 15 35 0
-28 29 30 -9 -10 -11 -13 14 -15 0
-28 29 30 -9 -10 -11 -13 -14 15 0
-28 29 30 -9 -10 -11 -13 -14 -15 0
-28 29 -30 9 10 11 13 14 15 0
-28 29 -30 9 10 11 13 14 -15 0
-28 29 -30 9 10 11 13 -14 15 0
-28 29 -30 9 10 11 13 -14 -15 0
-28 29 -30 9 10 11 -13 14 15 0
-28 29 -30 9 10 11 -13 14 -15 35 0
-28 29 -30 9 10 11 -13 -14 15 39 0
-28 29 -30 9 10 11 -13 -14 -15 38 0
-28 29 -30 9 10 -11 13 14 15 0
-28 29 -30 9 10 -11 13 14 -15 0
-28 29 -30 9 10 -11 13 -14 15 0
-28 29 -30 9 10 -11 13 -14 -15 0
-28 29 -30 9 10 -11 -13 14 15 0
-28 29 -30 9 10 -11 -13 14 -15 38 0
-28 29 -30 9 10 -11 -13 -14 15 40 0
-28 29 -30 9 10 -11 -13 -14 -15 0
-28 29 -30 9 -10 11 13 14 15 0
-28 29 -30 9 -10 11 13 14 -15 0
-28 29 -30 9 -10 11 13 -14 15 0
-28 29 -30 9 -10 11 13 -14 -15 0
-28 29 -30 9 -10 11 -13 14 15 0
-28 29 -30 9 -10 11 -13 14 -15 38 0
-28 29 -30 9 -10 11 -13 -14 15 0
-28 29 -30 9 -10 11 -13 -14 -15 0
-28 29 -30 9 -10 -11 13 14 15 0
-28 29 -30 9 -10 -11 13 14 -15 0
-28 29 -30 9 -10 -11 13 -14 15 0
-28 29 -30 9 -10 -11 13 -14 -15 0
-28 29 -30 9 -10 -11 -13 14 15 40 0
-28 29 -30 9 -10 -11 -13 14 -15 32 0
-28 29 -30 9 -10 -11 -13 -14 15 0
-28 29 -30 9 -10 -11 -13 -14 -15 35 0
-28 29 -30 -9 10 11 13 14 15 0
-28 29 -30 -9 10 11 13 14 -15 0
-28 29 -30 -9 10 11 13 -14 15 0
-28 29 -30 -9 10 11 13 -14 -15 0
-28 29 -30 -9 10 11 -13 14 15 0
-28 29 -30 -9 10 11 -13 14 -15 38 0
-28 29 -30 -9 10 11 -13 -14 15 0
-28 29 -30 -9 10 11 -13 -14 -15 0
-28 29 -30 -9 10 -11 13 14 15 0
-28 29 -30 -9 10 -11 13 14 -15 35 0
-28 29 -30 -9 10 -11 13 -14 15 0
-28 29 -30 -9 10 -11 13 -14 -15 0
-28 29 -30 -9 10 -11 -13 14 15 33 0
-28 29 -30 -9 10 -11 -13 14 -15 33 0
-28 29 -30 -9 10 -11 -13 -14 15 0
-28 29 -30 -9 10 -11 -13 -14 -15 0
-28 29 -30 -9 -10 11 13 14 15 0
-28 29 -30 -9 -10 11 13 14 -15 0
-28 29 -30 -9 -10 11 13 -14 15 0
-28 29 -30 -9 -10 11 13 -14 -15 39 0
-28 29 -30 -9 -10 11 -13 14 15 37 0
-28 29 -30 -9 -10 11 -13 14 -15 0
-28 29 -30 -9 -10 11 -13 -14 15 0
-28 29 -30 -9 -10 11 -13 -14 -15 0
-28 29 -30 -9 -10 -11 13 14 15 0
-28 29 -30 -9 -10 -11 13 14 -15 0
-28 29 -30 -9 -10 -11 13 -14 15 0
-28 29 -30 -9 -10 -11 13 -14 -15 32 0
-28 29 -30 -9 -10 -11 -13 14 15 35 0
-28 29 -30 -9 -10 -11 -13 14 -15 0
-28 29 -30 -9 -10 -11 -13 -14 15 0
-28 29 -30 -9 -10 -11 -13 -14 -15 0
-28 -29 30 9 10 11 13 14 15 0
-28 -29 30 9 10 11 13 14 -15 0
-28 -29 30 9 10 11 13 -14 15 0
-28 -29 30 9 10 11 13 -14 -15 0
-28 -29 30 9 10 11 -13 14 15 0
-28 -29 30 9 10 11 -13 14 -15 0
-28 -29 30 9 10 11 -13 -14 15 39 0
-28 -29 30 9 10 11 -13 -14 -15 38 0
-28 -29 30 9 10 -11 13 14 15 0
-28 -29 30 9 10 -11 13 14 -15 0
-28 -29 30 9 10 -11 13 -14 15 0
-28 -29 30 9 10 -11 13 -14 -15 0
-28 -29 30 9 10 -11 -13 14 15 0
-28 -29 30 9 10 -11 -13 14 -15 0
-28 -29 30 9 10 -11 -13 -14 15 43 0
-28 -29 30 9 10 -11 -13 -14 -15 34 0
-28 -29 30 9 -10 11 13 14 15 0
-28 -29 30 9 -10 11 13 14 -15 0
-28 -29 30 9 -10 11 13 -14 15 0
-28 -29 30 9 -10 11 13 -14 -15 0
-28 -29 30 9 -10 11 -13 14 15 0
-28 -29 30 9 -10 11 -13 14 -15 0
-28 -29 30 9 -10 11 -13 -14 15 32 0
-28 -29 30 9 -10 11 -13 -14 -15 44 0
-28 -29 30 9 -10 -11 13 14 15 0
-28 -29 30 9 -10 -11 13 14 -15 0
-28 -29 30 9 -10 -11 13 -14 15 0
-28 -29 30 9 -10 -11 13 -14 -15 0
-28 -29 30 9 -10 -11 -13 14 15 0
-28 -29 30 9 -10 -11 -13 14 -15 0
-28 -29 30 9 -10 -11 -13 -14 15 32 0
-28 -29 30 9 -10 -11 -13 -14 -15 35 0
-28 -29 30 -9 10 11 13 14 15 0
-28 -29 30 -9 10 11 13 14 -15 0
-28 -29 30 -9 10 11 13 -14 15 0
-28 -29 30 -9 10 11 13 -14 -15 0
-28 -29 30 -9 10 11 -13 14 15 0
-28 -29 30 -9 10 11 -13 14 -15 38 0
-28 -29 30 -9 10 11 -13 -14 15 32 0
-28 -29 30 -9 10 11 -13 -14 -15 0
-28 -29 30 -9 10 -11 13 14 15 0
-28 -29 30 -9 10 -11 13 14 -15 35 0
-28 -29 30 -9 10 -11 13 -14 15 0
-28 -29 30 -9 10 -11 13 -14 -15 0
-28 -29 30 -9 10 -11 -13 14 15 0
-28 -29 30 -9 10 -11 -13 14 -15 39 0
-28 -29 30 -9 10 -11 -13 -14 15 39 0
-28 -29 30 -9 10 -11 -13 -14 -15 0
-28 -29 30 -9 -10 11 13 14 15 0
-28 -29 30 -9 -10 11 13 14 -15 0
-28 -29 30 -9 -10 11 13 -14 15 0
-28 -29 30 -9 -10 11 13 -14 -15 0
-28 -29 30 -9 -10 11 -13 14 15 0
-28 -29 30 -9 -10 11 -13 14 -15 32 0
-28 -29 30 -9 -10 11 -13 -14 15 33 0
-28 -29 30 -9 -10 11 -13 -14 -15 0
-28 -29 30 -9 -10 -11 13 14 15 0
-28 -29 30 -9 -10 -11 13 14 -15 0
-28 -29 30 -9 -10 -11 13 -14 15 0
-28 -29 30 -9 -10 -11 13 -14 -15 0
-28 -29 30 -9 -10 -11 -13 14 15 35 0
-28 -29 30 -9 -10 -11 -13 14 -15 38 0
-28 -29 30 -9 -10 -11 -13 -14 15 32 0
-28 -29 30 -9 -10 -11 -13 -14 -15 0
-28 -29 -30 9 10 11 13 14 15 0
-28 -29 -30 9 10 11 13 14 -15 0
-28 -29 -30 9 10 11 13 -14 15 0
-28 -29 -30 9 10 11 13 -14 -15 0
-28 -29 -30 9 10 11 -13 14 15 0
-28 -29 -30 9 10 11 -13 14 -15 0
-28 -29 -30 9 10 11 -13 -14 15 0
-28 -29 -30 9 10 11 -13 -14 -15 0
-28 -29 -30 9 10 -11 13 14 15 0
-28 -29 -30 9 10 -11 13 14 -15 0
-28 -29 -30 9 10 -11 13 -14 15 0
-28 -29 -30 9 10 -11 13 -14 -15 0
-28 -29 -30 9 10 -11 -13 14 15 0
-28 -29 -30 9 10 -11 -13 14 -15 0
-28 -29 -30 9 10 -11 -13 -14 15 0
-28 -29 -30 9 10 -11 -13 -14 -15 37 0
-28 -29 -30 9 -10 11 13 14 15 0
-28 -29 -30 9 -10 11 13 14 -15 0
-28 -29 -30 9 -10 11 13 -14 15 0
-28 -29 -30 9 -10 11 13 -14 -15 0
-28 -29 -30 9 -10 11 -13 14 15 0
-28 -29 -30 9 -10 11 -13 14 -15 0
-28 -29 -30 9 -10 11 -13 -14 15 0
-28 -29 -30 9 -10 11 -13 -14 -15 45 0
-28 -29 -30 9 -10 -11 13 14 15 0
-28 -29 -30 9 -10 -11 13 14 -15 0
-28 -29 -30 9 -10 -11 13 -14 15 0
-28 -29 -30 9 -10 -11 13 -14 -15 0
-28 -29 -30 9 -10 -11 -13 14 15 0
-28 -29 -30 9 -10 -11 -13 14 -15 0
-28 -29 -30 9 -10 -11 -13 -14 15 0
-28 -29 -30 9 -10 -11 -13 -14 -15 35 0
-28 -29 -30 -9 10 11 13 14 15 0
-28 -29 -30 -9 10 11 13 14 -15 0
-28 -29 -30 -9 10 11 13 -14 15 0
-28 -29 -30 -9 10 11 13 -14 -15 0
-28 -29 -30 -9 10 11 -13 14 15 0
-28 -29 -30 -9 10 11 -13 14 -15 0
-28 -29 -30 -9 10 11 -13 -14 15 0
-28 -29 -30 -9 10 11 -13 -14 -15 32 0
-28 -29 -30 -9 10 -11 13 14 15 0
-28 -29 -30 -9 10 -11 13 14 -15 35 0
-28 -29 -30 -9 10 -11 13 -14 15 0
-28 -29 -30 -9 10 -11 13 -14 -15 0
-28 -29 -30 -9 10 -11 -13 14 15 0
-28 -29 -30 -9 10 -11 -13 14 -15 0
-28 -29 -30 -9 10 -11 -13 -14 15 33 0
-28 -29 -30 -9 10 -11 -13 -14 -15 32 0
-28 -29 -30 -9 -10 11 13 14 15 0
-28 -29 -30 -9 -10 11 13 14 -15 0
-28 -29 -30 -9 -10 11 13 -14 15 0
-28 -29 -30 -9 -10 11 13 -14 -15 0
-28 -29 -30 -9 -10 11 -13 14 15 0
-28 -29 -30 -9 -10 11 -13 14 -15 0
-28 -29 -30 -9 -10 11 -13 -14 15 39 0
-28 -29 -30 -9 -10 11 -13 -14 -15 32 0
-28 -29 -30 -9 -10 -11 13 14 15 0
-28 -29 -30 -9 -10 -11 13 14 -15 0
-28 -29 -30 -9 -10 -11 13 -14 15 0
-28 -29 -30 -9 -10 -11 13 -14 -15 0
-28 -29 -30 -9 -10 -11 -13 14 15 35 0
-28 -29 -30 -9 -10 -11 -13 14 -15 38 0
-28 -29 -30 -9 -10 -11 -13 -14 15 0
-28 -29 -30 -9 -10 -11 -13 -14 -15 32 0
